p cnf 20 152
-4 15 -16 0
1 8 -15 0
-11 12 -16 0
-3 -9 12 0
-8 13 14 0
-8 10 -13 0
-10 17 20 0
-2 7 10 0
-1 -5 -17 0
10 12 -17 0
3 6 -17 0
3 8 10 0
-3 -10 -13 0
1 3 -5 0
4 11 16 0
-1 13 -16 0
-4 7 -19 0
-6 -8 -14 0
-10 -16 20 0
-4 -15 18 0
3 7 -11 0
2 9 -11 0
-3 -11 -20 0
7 -10 -17 0
-1 -7 -8 0
1 8 15 0
5 -9 18 0
-1 13 -19 0
-1 -12 -15 0
-2 -5 -6 0
12 13 19 0
8 17 -18 0
6 7 -19 0
3 -11 17 0
-3 -17 -18 0
-4 -14 20 0
4 13 -14 0
-8 -13 20 0
6 -9 14 0
-18 -19 -20 0
4 -10 -13 0
4 -7 -9 0
4 -8 -10 0
3 -12 -14 0
-1 -6 17 0
-2 7 15 0
-4 9 -17 0
-5 13 -14 0
-2 -9 18 0
1 -16 18 0
2 -16 -19 0
-2 4 15 0
-4 10 17 0
3 -17 18 0
4 -12 14 0
8 10 -17 0
-3 -13 16 0
-7 11 -15 0
-8 -12 17 0
-3 -6 15 0
4 -8 17 0
-5 7 -19 0
7 14 -19 0
7 13 14 0
-11 17 -20 0
1 13 -18 0
13 14 20 0
-8 -17 18 0
-6 -9 -12 0
3 -4 -12 0
-8 16 -19 0
-4 12 -15 0
-6 11 12 0
-1 10 12 0
-5 8 -19 0
1 -4 18 0
-10 12 18 0
5 -15 -19 0
1 9 17 0
-1 -7 19 0
-1 17 -19 0
-2 15 18 0
12 -16 -18 0
-5 -8 20 0
-1 -8 -10 0
12 -14 -15 0
3 -11 18 0
3 -15 17 0
2 13 16 0
11 -16 -18 0
-3 4 -15 0
3 -8 -12 0
6 11 -20 0
3 -5 6 0
-8 15 -18 0
-7 14 -18 0
1 -9 17 0
-3 -9 -15 0
1 15 19 0
4 -6 -19 0
-3 -8 14 0
1 -5 -12 0
-1 -10 -18 0
-10 16 18 0
-13 14 17 0
-1 -3 7 0
-11 15 -17 0
6 10 14 0
3 -7 -13 0
1 4 -7 0
-1 9 16 0
-2 -7 -12 0
-2 9 -19 0
1 3 9 0
9 -14 -17 0
-2 -6 16 0
-3 16 -17 0
1 10 -11 0
3 -7 18 0
-9 10 -11 0
-5 -8 9 0
-3 -15 -17 0
-9 -13 -20 0
-3 4 -5 0
3 -10 12 0
1 18 20 0
-9 -15 20 0
7 8 18 0
1 -4 10 0
9 -16 19 0
2 -5 -6 0
8 -10 12 0
-5 9 -14 0
-3 -9 13 0
3 -12 -17 0
-5 -14 15 0
5 9 15 0
1 -6 -18 0
-6 8 -12 0
-3 -7 -18 0
-5 11 15 0
-6 -9 -11 0
1 -6 18 0
-14 15 -20 0
2 -8 -13 0
-1 2 -17 0
-2 18 -19 0
-10 -14 -17 0
7 10 20 0
-2 -9 -13 0
-11 16 19 0
-8 11 -12 0
